NAME: tsp51.tsp
COMMENT: Eric Albuquerque e Álvaro Freire - método utilizado: Christofides
TYPE: TOUR
DIMENSION: 51
TOTAL_WEIGHT: 438
TOUR_SECTION
1
22
2
11
38
5
15
45
33
39
10
49
9
30
34
50
16
21
29
20
35
36
3
28
31
8
26
7
43
24
23
48
27
6
14
25
13
41
19
40
42
44
37
17
4
18
47
12
51
46
32
EOF
